NAME : A-n55-k9
COMMENT : (Augerat et al, Min no of trucks: 9, Optimal value: 1073)
TYPE : CVRP
DIMENSION : 55
EDGE_WEIGHT_TYPE : EUC_2D 
CAPACITY : 100
NODE_COORD_SECTION 
 1 36 64
 2 94 47
 3 10 23
 4 16 46
 5 25 79
 6 41 30
 7 81 45
 8 14 79
 9 42 56
 10 90 17
 11 41 39
 12 21 14
 13 41 46
 14 65 96
 15 13 49
 16 21 14
 17 57 2
 18 14 42
 19 66 62
 20 58 96
 21 5 51
 22 41 50
 23 50 99
 24 84 85
 25 97 90
 26 47 76
 27 11 54
 28 60 97
 29 60 89
 30 58 68
 31 30 93
 32 9 60
 33 47 44
 34 19 40
 35 15 40
 36 88 21
 37 33 58
 38 21 51
 39 57 7
 40 81 6
 41 49 6
 42 51 78
 43 9 62
 44 84 36
 45 95 76
 46 89 44
 47 10 49
 48 69 16
 49 75 66
 50 97 11
 51 74 69
 52 1 14
 53 96 91
 54 46 22
 55 74 92
DEMAND_SECTION 
1 0 
2 3 
3 12 
4 25 
5 4 
6 11 
7 20 
8 21 
9 10 
10 20 
11 13 
12 14 
13 16 
14 17 
15 11 
16 36 
17 6 
18 7 
19 21 
20 11 
21 17 
22 22 
23 10 
24 19 
25 21 
26 23 
27 19 
28 15 
29 22 
30 7 
31 11 
32 15 
33 22 
34 12 
35 24 
36 25 
37 2 
38 15 
39 18 
40 13 
41 3 
42 20 
43 14 
44 10 
45 10 
46 66 
47 10 
48 7 
49 12 
50 24 
51 5 
52 18 
53 7 
54 11 
55 12 
DEPOT_SECTION 
 1  
 -1  
EOF 
[[   9.   62. -175.   14.]
 [   9.   60. -171.   15.]
 [  11.   54. -158.   19.]
 [   5.   51. -157.   17.]
 [  10.   49. -150.   10.]
 [  13.   49. -146.   11.]
 [  21.   51. -139.   15.]
 [  16.   46. -138.   25.]
 [  14.   42. -135.    7.]
 [  15.   40. -131.   24.]
 [  19.   40. -125.   12.]
 [   1.   14. -124.   18.]
 [  10.   23. -122.   12.]
 [  33.   58. -116.    2.]
 [  21.   14. -106.   14.]
 [  21.   14. -106.   36.]
 [  41.   30.  -81.   11.]
 [  41.   39.  -78.   13.]
 [  49.    6.  -77.    3.]
 [  46.   22.  -76.   11.]
 [  41.   46.  -74.   16.]
 [  57.    2.  -71.    6.]
 [  41.   50.  -70.   22.]
 [  57.    7.  -69.   18.]
 [  47.   44.  -61.   22.]
 [  69.   16.  -55.    7.]
 [  42.   56.  -53.   10.]
 [  81.    6.  -52.   13.]
 [  90.   17.  -41.   20.]
 [  97.   11.  -40.   24.]
 [  88.   21.  -39.   25.]
 [  84.   36.  -30.   10.]
 [  81.   45.  -22.   20.]
 [  89.   44.  -20.   66.]
 [  94.   47.  -16.    3.]
 [  66.   62.   -3.   21.]
 [  75.   66.    2.   12.]
 [  74.   69.    7.    5.]
 [  58.   68.   10.    7.]
 [  95.   76.   11.   10.]
 [  97.   90.   23.   21.]
 [  84.   85.   23.   19.]
 [  96.   91.   24.    7.]
 [  74.   92.   36.   12.]
 [  51.   78.   43.   20.]
 [  60.   89.   46.   22.]
 [  47.   76.   47.   23.]
 [  65.   96.   47.   17.]
 [  60.   97.   53.   15.]
 [  58.   96.   55.   11.]
 [  50.   99.   68.   10.]
 [  30.   93.  101.   11.]
 [  25.   79.  126.    4.]
 [  14.   79.  145.   21.]]